data/lp_files/pEFS/51_1.lp
\ Model foo
\ LP format - for model browsing. Use MPS format to capture full model detail.
Minimize
  z
Subject To
 allocateEach[1]: x[1,1] + x[2,1] + x[3,1] = 1
 allocateEach[2]: x[1,2] + x[2,2] + x[3,2] = 1
 allocateEach[3]: x[1,3] + x[2,3] + x[3,3] = 1
 allocateEach[4]: x[1,4] + x[2,4] + x[3,4] = 1
 allocateEach[5]: x[1,5] + x[2,5] + x[3,5] = 1
 allocateEach[6]: x[1,6] + x[2,6] + x[3,6] = 1
 allocateEach[7]: x[1,7] + x[2,7] + x[3,7] = 1
 allocateEach[8]: x[1,8] + x[2,8] + x[3,8] = 1
 allocateEach[9]: x[1,9] + x[2,9] + x[3,9] = 1
 allocateEach[10]: x[1,10] + x[2,10] + x[3,10] = 1
 allocateEach[11]: x[1,11] + x[2,11] + x[3,11] = 1
 allocateAllCash: cashProportion[1] + cashProportion[2] + cashProportion[3]
   = 1
 findWorstP[1,2]: z + 0.0177147918511958 cashProportion[1]
   - 0.0177147918511958 cashProportion[2] + 0.0638263950398583 x[1,1]
   + 0.049140832595217 x[1,2] + 0.1555890168290523 x[1,3]
   + 0.1662887511071745 x[1,4] + 0.1186536758193091 x[1,5]
   + 0.0968644818423384 x[1,6] + 0.0377147918511958 x[1,7]
   + 0.0226040744021258 x[1,8] + 0.169317980513729 x[1,9]
   + 0.0417006200177148 x[1,10] + 0.0605845881310895 x[1,11]
   - 0.0638263950398583 x[2,1] - 0.049140832595217 x[2,2]
   - 0.1555890168290523 x[2,3] - 0.1662887511071745 x[2,4]
   - 0.1186536758193091 x[2,5] - 0.0968644818423384 x[2,6]
   - 0.0377147918511958 x[2,7] - 0.0226040744021258 x[2,8]
   - 0.169317980513729 x[2,9] - 0.0417006200177148 x[2,10]
   - 0.0605845881310895 x[2,11] >= 0
 findWorstP[1,3]: z + 0.0177147918511958 cashProportion[1]
   - 0.0177147918511958 cashProportion[3] + 0.0638263950398583 x[1,1]
   + 0.049140832595217 x[1,2] + 0.1555890168290523 x[1,3]
   + 0.1662887511071745 x[1,4] + 0.1186536758193091 x[1,5]
   + 0.0968644818423384 x[1,6] + 0.0377147918511958 x[1,7]
   + 0.0226040744021258 x[1,8] + 0.169317980513729 x[1,9]
   + 0.0417006200177148 x[1,10] + 0.0605845881310895 x[1,11]
   - 0.0638263950398583 x[3,1] - 0.049140832595217 x[3,2]
   - 0.1555890168290523 x[3,3] - 0.1662887511071745 x[3,4]
   - 0.1186536758193091 x[3,5] - 0.0968644818423384 x[3,6]
   - 0.0377147918511958 x[3,7] - 0.0226040744021258 x[3,8]
   - 0.169317980513729 x[3,9] - 0.0417006200177148 x[3,10]
   - 0.0605845881310895 x[3,11] >= 0
 findWorstP[2,1]: z - 0.0158957240502305 cashProportion[1]
   + 0.0158957240502305 cashProportion[2] - 0.1199491336830393 x[1,1]
   - 0.0457637895406136 x[1,2] - 0.0253854713082181 x[1,3]
   - 0.0949133683039263 x[1,4] - 0.1416309012875537 x[1,5]
   - 0.039930058814179 x[1,6] - 0.1530917183277699 x[1,7]
   - 0.1434748052773804 x[1,8] - 0.0901764425369576 x[1,9]
   - 0.1154029566046734 x[1,10] - 0.0143856302654586 x[1,11]
   + 0.1199491336830393 x[2,1] + 0.0457637895406136 x[2,2]
   + 0.0253854713082181 x[2,3] + 0.0949133683039263 x[2,4]
   + 0.1416309012875537 x[2,5] + 0.039930058814179 x[2,6]
   + 0.1530917183277699 x[2,7] + 0.1434748052773804 x[2,8]
   + 0.0901764425369576 x[2,9] + 0.1154029566046734 x[2,10]
   + 0.0143856302654586 x[2,11] >= 0
 findWorstP[2,3]: z + 0.0158957240502305 cashProportion[2]
   - 0.0158957240502305 cashProportion[3] + 0.1199491336830393 x[2,1]
   + 0.0457637895406136 x[2,2] + 0.0253854713082181 x[2,3]
   + 0.0949133683039263 x[2,4] + 0.1416309012875537 x[2,5]
   + 0.039930058814179 x[2,6] + 0.1530917183277699 x[2,7]
   + 0.1434748052773804 x[2,8] + 0.0901764425369576 x[2,9]
   + 0.1154029566046734 x[2,10] + 0.0143856302654586 x[2,11]
   - 0.1199491336830393 x[3,1] - 0.0457637895406136 x[3,2]
   - 0.0253854713082181 x[3,3] - 0.0949133683039263 x[3,4]
   - 0.1416309012875537 x[3,5] - 0.039930058814179 x[3,6]
   - 0.1530917183277699 x[3,7] - 0.1434748052773804 x[3,8]
   - 0.0901764425369576 x[3,9] - 0.1154029566046734 x[3,10]
   - 0.0143856302654586 x[3,11] >= 0
 findWorstP[3,1]: z - 0.016107987951225 cashProportion[1]
   + 0.016107987951225 cashProportion[3] - 0.1215025531160903 x[1,1]
   - 0.003221597590245 x[1,2] - 0.0538167877450428 x[1,3]
   - 0.0347610379987436 x[1,4] - 0.0684589487927063 x[1,5]
   - 0.0637232003350462 x[1,6] - 0.0930236304183245 x[1,7]
   - 0.1539601488378087 x[1,8] - 0.0911551038159824 x[1,9]
   - 0.1417502939707801 x[1,10] - 0.1585187094280054 x[1,11]
   + 0.1215025531160903 x[3,1] + 0.003221597590245 x[3,2]
   + 0.0538167877450428 x[3,3] + 0.0347610379987436 x[3,4]
   + 0.0684589487927063 x[3,5] + 0.0637232003350462 x[3,6]
   + 0.0930236304183245 x[3,7] + 0.1539601488378087 x[3,8]
   + 0.0911551038159824 x[3,9] + 0.1417502939707801 x[3,10]
   + 0.1585187094280054 x[3,11] >= 0
 findWorstP[3,2]: z - 0.016107987951225 cashProportion[2]
   + 0.016107987951225 cashProportion[3] - 0.1215025531160903 x[2,1]
   - 0.003221597590245 x[2,2] - 0.0538167877450428 x[2,3]
   - 0.0347610379987436 x[2,4] - 0.0684589487927063 x[2,5]
   - 0.0637232003350462 x[2,6] - 0.0930236304183245 x[2,7]
   - 0.1539601488378087 x[2,8] - 0.0911551038159824 x[2,9]
   - 0.1417502939707801 x[2,10] - 0.1585187094280054 x[2,11]
   + 0.1215025531160903 x[3,1] + 0.003221597590245 x[3,2]
   + 0.0538167877450428 x[3,3] + 0.0347610379987436 x[3,4]
   + 0.0684589487927063 x[3,5] + 0.0637232003350462 x[3,6]
   + 0.0930236304183245 x[3,7] + 0.1539601488378087 x[3,8]
   + 0.0911551038159824 x[3,9] + 0.1417502939707801 x[3,10]
   + 0.1585187094280054 x[3,11] >= 0
Bounds
 z <= 1
 -infinity <= cashProportion[1] <= 1
 -infinity <= cashProportion[2] <= 1
 -infinity <= cashProportion[3] <= 1
Binaries
 x[1,1] x[1,2] x[1,3] x[1,4] x[1,5] x[1,6] x[1,7] x[1,8] x[1,9] x[1,10]
 x[1,11] x[2,1] x[2,2] x[2,3] x[2,4] x[2,5] x[2,6] x[2,7] x[2,8] x[2,9]
 x[2,10] x[2,11] x[3,1] x[3,2] x[3,3] x[3,4] x[3,5] x[3,6] x[3,7] x[3,8]
 x[3,9] x[3,10] x[3,11]
End
