data/mps_files/q3/51_1.mps
NAME foo
ROWS
 N  OBJ
 E  allocateEach[1]
 E  allocateEach[2]
 E  allocateEach[3]
 E  allocateEach[4]
 E  allocateEach[5]
 E  allocateEach[6]
 E  allocateEach[7]
 E  allocateEach[8]
 E  allocateEach[9]
 E  allocateEach[10]
 E  allocateEach[11]
 E  allocateAllCash
 G  findWorstP[1,2]
 G  findWorstP[1,3]
 G  findWorstP[2,1]
 G  findWorstP[2,3]
 G  findWorstP[3,1]
 G  findWorstP[3,2]
COLUMNS
    z         OBJ       1
    z         findWorstP[1,2]  1
    z         findWorstP[1,3]  1
    z         findWorstP[2,1]  1
    z         findWorstP[2,3]  1
    z         findWorstP[3,1]  1
    z         findWorstP[3,2]  1
    cashProportion[1]  allocateAllCash  1
    cashProportion[1]  findWorstP[1,2]  1.7714791851195753e-02
    cashProportion[1]  findWorstP[1,3]  1.7714791851195753e-02
    cashProportion[1]  findWorstP[2,1]  -1.5895724050230493e-02
    cashProportion[1]  findWorstP[3,1]  -1.6107987951225016e-02
    cashProportion[2]  allocateAllCash  1
    cashProportion[2]  findWorstP[1,2]  -1.7714791851195753e-02
    cashProportion[2]  findWorstP[2,1]  1.5895724050230493e-02
    cashProportion[2]  findWorstP[2,3]  1.5895724050230493e-02
    cashProportion[2]  findWorstP[3,2]  -1.6107987951225016e-02
    cashProportion[3]  allocateAllCash  1
    cashProportion[3]  findWorstP[1,3]  -1.7714791851195753e-02
    cashProportion[3]  findWorstP[2,3]  -1.5895724050230493e-02
    cashProportion[3]  findWorstP[3,1]  1.6107987951225016e-02
    cashProportion[3]  findWorstP[3,2]  1.6107987951225016e-02
    MARKER    'MARKER'                 'INTORG'
    x[1,1]    allocateEach[1]  1
    x[1,1]    findWorstP[1,2]  6.3826395039858291e-02
    x[1,1]    findWorstP[1,3]  6.3826395039858291e-02
    x[1,1]    findWorstP[2,1]  -1.1994913368303931e-01
    x[1,1]    findWorstP[3,1]  -1.2150255311609028e-01
    x[1,2]    allocateEach[2]  1
    x[1,2]    findWorstP[1,2]  4.9140832595217010e-02
    x[1,2]    findWorstP[1,3]  4.9140832595217010e-02
    x[1,2]    findWorstP[2,1]  -4.5763789540613588e-02
    x[1,2]    findWorstP[3,1]  -3.2215975902450027e-03
    x[1,3]    allocateEach[3]  1
    x[1,3]    findWorstP[1,2]  1.5558901682905230e-01
    x[1,3]    findWorstP[1,3]  1.5558901682905230e-01
    x[1,3]    findWorstP[2,1]  -2.5385471308218097e-02
    x[1,3]    findWorstP[3,1]  -5.3816787745042775e-02
    x[1,4]    allocateEach[4]  1
    x[1,4]    findWorstP[1,2]  1.6628875110717453e-01
    x[1,4]    findWorstP[1,3]  1.6628875110717453e-01
    x[1,4]    findWorstP[2,1]  -9.4913368303926257e-02
    x[1,4]    findWorstP[3,1]  -3.4761037998743576e-02
    x[1,5]    allocateEach[5]  1
    x[1,5]    findWorstP[1,2]  1.1865367581930913e-01
    x[1,5]    findWorstP[1,3]  1.1865367581930913e-01
    x[1,5]    findWorstP[2,1]  -1.4163090128755368e-01
    x[1,5]    findWorstP[3,1]  -6.8458948792706309e-02
    x[1,6]    allocateEach[6]  1
    x[1,6]    findWorstP[1,2]  9.6864481842338368e-02
    x[1,6]    findWorstP[1,3]  9.6864481842338368e-02
    x[1,6]    findWorstP[2,1]  -3.9930058814178992e-02
    x[1,6]    findWorstP[3,1]  -6.3723200335046151e-02
    x[1,7]    allocateEach[7]  1
    x[1,7]    findWorstP[1,2]  3.7714791851195757e-02
    x[1,7]    findWorstP[1,3]  3.7714791851195757e-02
    x[1,7]    findWorstP[2,1]  -1.5309171832776985e-01
    x[1,7]    findWorstP[3,1]  -9.3023630418324454e-02
    x[1,8]    allocateEach[8]  1
    x[1,8]    findWorstP[1,2]  2.2604074402125779e-02
    x[1,8]    findWorstP[1,3]  2.2604074402125779e-02
    x[1,8]    findWorstP[2,1]  -1.4347480527738041e-01
    x[1,8]    findWorstP[3,1]  -1.5396014883780867e-01
    x[1,9]    allocateEach[9]  1
    x[1,9]    findWorstP[1,2]  1.6931798051372898e-01
    x[1,9]    findWorstP[1,3]  1.6931798051372898e-01
    x[1,9]    findWorstP[2,1]  -9.0176442536957585e-02
    x[1,9]    findWorstP[3,1]  -9.1155103815982352e-02
    x[1,10]   allocateEach[10]  1
    x[1,10]   findWorstP[1,2]  0.0417006200177148
    x[1,10]   findWorstP[1,3]  0.0417006200177148
    x[1,10]   findWorstP[2,1]  -1.1540295660467337e-01
    x[1,10]   findWorstP[3,1]  -1.4175029397078012e-01
    x[1,11]   allocateEach[11]  1
    x[1,11]   findWorstP[1,2]  6.0584588131089474e-02
    x[1,11]   findWorstP[1,3]  6.0584588131089474e-02
    x[1,11]   findWorstP[2,1]  -1.4385630265458594e-02
    x[1,11]   findWorstP[3,1]  -1.5851870942800536e-01
    x[2,1]    allocateEach[1]  1
    x[2,1]    findWorstP[1,2]  -6.3826395039858291e-02
    x[2,1]    findWorstP[2,1]  1.1994913368303931e-01
    x[2,1]    findWorstP[2,3]  1.1994913368303931e-01
    x[2,1]    findWorstP[3,2]  -1.2150255311609028e-01
    x[2,2]    allocateEach[2]  1
    x[2,2]    findWorstP[1,2]  -4.9140832595217010e-02
    x[2,2]    findWorstP[2,1]  4.5763789540613588e-02
    x[2,2]    findWorstP[2,3]  4.5763789540613588e-02
    x[2,2]    findWorstP[3,2]  -3.2215975902450027e-03
    x[2,3]    allocateEach[3]  1
    x[2,3]    findWorstP[1,2]  -1.5558901682905230e-01
    x[2,3]    findWorstP[2,1]  2.5385471308218097e-02
    x[2,3]    findWorstP[2,3]  2.5385471308218097e-02
    x[2,3]    findWorstP[3,2]  -5.3816787745042775e-02
    x[2,4]    allocateEach[4]  1
    x[2,4]    findWorstP[1,2]  -1.6628875110717453e-01
    x[2,4]    findWorstP[2,1]  9.4913368303926257e-02
    x[2,4]    findWorstP[2,3]  9.4913368303926257e-02
    x[2,4]    findWorstP[3,2]  -3.4761037998743576e-02
    x[2,5]    allocateEach[5]  1
    x[2,5]    findWorstP[1,2]  -1.1865367581930913e-01
    x[2,5]    findWorstP[2,1]  1.4163090128755368e-01
    x[2,5]    findWorstP[2,3]  1.4163090128755368e-01
    x[2,5]    findWorstP[3,2]  -6.8458948792706309e-02
    x[2,6]    allocateEach[6]  1
    x[2,6]    findWorstP[1,2]  -9.6864481842338368e-02
    x[2,6]    findWorstP[2,1]  3.9930058814178992e-02
    x[2,6]    findWorstP[2,3]  3.9930058814178992e-02
    x[2,6]    findWorstP[3,2]  -6.3723200335046151e-02
    x[2,7]    allocateEach[7]  1
    x[2,7]    findWorstP[1,2]  -3.7714791851195757e-02
    x[2,7]    findWorstP[2,1]  1.5309171832776985e-01
    x[2,7]    findWorstP[2,3]  1.5309171832776985e-01
    x[2,7]    findWorstP[3,2]  -9.3023630418324454e-02
    x[2,8]    allocateEach[8]  1
    x[2,8]    findWorstP[1,2]  -2.2604074402125779e-02
    x[2,8]    findWorstP[2,1]  1.4347480527738041e-01
    x[2,8]    findWorstP[2,3]  1.4347480527738041e-01
    x[2,8]    findWorstP[3,2]  -1.5396014883780867e-01
    x[2,9]    allocateEach[9]  1
    x[2,9]    findWorstP[1,2]  -1.6931798051372898e-01
    x[2,9]    findWorstP[2,1]  9.0176442536957585e-02
    x[2,9]    findWorstP[2,3]  9.0176442536957585e-02
    x[2,9]    findWorstP[3,2]  -9.1155103815982352e-02
    x[2,10]   allocateEach[10]  1
    x[2,10]   findWorstP[1,2]  -0.0417006200177148
    x[2,10]   findWorstP[2,1]  1.1540295660467337e-01
    x[2,10]   findWorstP[2,3]  1.1540295660467337e-01
    x[2,10]   findWorstP[3,2]  -1.4175029397078012e-01
    x[2,11]   allocateEach[11]  1
    x[2,11]   findWorstP[1,2]  -6.0584588131089474e-02
    x[2,11]   findWorstP[2,1]  1.4385630265458594e-02
    x[2,11]   findWorstP[2,3]  1.4385630265458594e-02
    x[2,11]   findWorstP[3,2]  -1.5851870942800536e-01
    x[3,1]    allocateEach[1]  1
    x[3,1]    findWorstP[1,3]  -6.3826395039858291e-02
    x[3,1]    findWorstP[2,3]  -1.1994913368303931e-01
    x[3,1]    findWorstP[3,1]  1.2150255311609028e-01
    x[3,1]    findWorstP[3,2]  1.2150255311609028e-01
    x[3,2]    allocateEach[2]  1
    x[3,2]    findWorstP[1,3]  -4.9140832595217010e-02
    x[3,2]    findWorstP[2,3]  -4.5763789540613588e-02
    x[3,2]    findWorstP[3,1]  3.2215975902450027e-03
    x[3,2]    findWorstP[3,2]  3.2215975902450027e-03
    x[3,3]    allocateEach[3]  1
    x[3,3]    findWorstP[1,3]  -1.5558901682905230e-01
    x[3,3]    findWorstP[2,3]  -2.5385471308218097e-02
    x[3,3]    findWorstP[3,1]  5.3816787745042775e-02
    x[3,3]    findWorstP[3,2]  5.3816787745042775e-02
    x[3,4]    allocateEach[4]  1
    x[3,4]    findWorstP[1,3]  -1.6628875110717453e-01
    x[3,4]    findWorstP[2,3]  -9.4913368303926257e-02
    x[3,4]    findWorstP[3,1]  3.4761037998743576e-02
    x[3,4]    findWorstP[3,2]  3.4761037998743576e-02
    x[3,5]    allocateEach[5]  1
    x[3,5]    findWorstP[1,3]  -1.1865367581930913e-01
    x[3,5]    findWorstP[2,3]  -1.4163090128755368e-01
    x[3,5]    findWorstP[3,1]  6.8458948792706309e-02
    x[3,5]    findWorstP[3,2]  6.8458948792706309e-02
    x[3,6]    allocateEach[6]  1
    x[3,6]    findWorstP[1,3]  -9.6864481842338368e-02
    x[3,6]    findWorstP[2,3]  -3.9930058814178992e-02
    x[3,6]    findWorstP[3,1]  6.3723200335046151e-02
    x[3,6]    findWorstP[3,2]  6.3723200335046151e-02
    x[3,7]    allocateEach[7]  1
    x[3,7]    findWorstP[1,3]  -3.7714791851195757e-02
    x[3,7]    findWorstP[2,3]  -1.5309171832776985e-01
    x[3,7]    findWorstP[3,1]  9.3023630418324454e-02
    x[3,7]    findWorstP[3,2]  9.3023630418324454e-02
    x[3,8]    allocateEach[8]  1
    x[3,8]    findWorstP[1,3]  -2.2604074402125779e-02
    x[3,8]    findWorstP[2,3]  -1.4347480527738041e-01
    x[3,8]    findWorstP[3,1]  1.5396014883780867e-01
    x[3,8]    findWorstP[3,2]  1.5396014883780867e-01
    x[3,9]    allocateEach[9]  1
    x[3,9]    findWorstP[1,3]  -1.6931798051372898e-01
    x[3,9]    findWorstP[2,3]  -9.0176442536957585e-02
    x[3,9]    findWorstP[3,1]  9.1155103815982352e-02
    x[3,9]    findWorstP[3,2]  9.1155103815982352e-02
    x[3,10]   allocateEach[10]  1
    x[3,10]   findWorstP[1,3]  -0.0417006200177148
    x[3,10]   findWorstP[2,3]  -1.1540295660467337e-01
    x[3,10]   findWorstP[3,1]  1.4175029397078012e-01
    x[3,10]   findWorstP[3,2]  1.4175029397078012e-01
    x[3,11]   allocateEach[11]  1
    x[3,11]   findWorstP[1,3]  -6.0584588131089474e-02
    x[3,11]   findWorstP[2,3]  -1.4385630265458594e-02
    x[3,11]   findWorstP[3,1]  1.5851870942800536e-01
    x[3,11]   findWorstP[3,2]  1.5851870942800536e-01
    MARKER    'MARKER'                 'INTEND'
RHS
    RHS1      allocateEach[1]  1
    RHS1      allocateEach[2]  1
    RHS1      allocateEach[3]  1
    RHS1      allocateEach[4]  1
    RHS1      allocateEach[5]  1
    RHS1      allocateEach[6]  1
    RHS1      allocateEach[7]  1
    RHS1      allocateEach[8]  1
    RHS1      allocateEach[9]  1
    RHS1      allocateEach[10]  1
    RHS1      allocateEach[11]  1
    RHS1      allocateAllCash  1
BOUNDS
 UP BND1      z         1
 MI BND1      cashProportion[1]
 UP BND1      cashProportion[1]  1
 MI BND1      cashProportion[2]
 UP BND1      cashProportion[2]  1
 MI BND1      cashProportion[3]
 UP BND1      cashProportion[3]  1
 BV BND1      x[1,1]  
 BV BND1      x[1,2]  
 BV BND1      x[1,3]  
 BV BND1      x[1,4]  
 BV BND1      x[1,5]  
 BV BND1      x[1,6]  
 BV BND1      x[1,7]  
 BV BND1      x[1,8]  
 BV BND1      x[1,9]  
 BV BND1      x[1,10] 
 BV BND1      x[1,11] 
 BV BND1      x[2,1]  
 BV BND1      x[2,2]  
 BV BND1      x[2,3]  
 BV BND1      x[2,4]  
 BV BND1      x[2,5]  
 BV BND1      x[2,6]  
 BV BND1      x[2,7]  
 BV BND1      x[2,8]  
 BV BND1      x[2,9]  
 BV BND1      x[2,10] 
 BV BND1      x[2,11] 
 BV BND1      x[3,1]  
 BV BND1      x[3,2]  
 BV BND1      x[3,3]  
 BV BND1      x[3,4]  
 BV BND1      x[3,5]  
 BV BND1      x[3,6]  
 BV BND1      x[3,7]  
 BV BND1      x[3,8]  
 BV BND1      x[3,9]  
 BV BND1      x[3,10] 
 BV BND1      x[3,11] 
ENDATA
